outputs/case_385.model.txt
compliance_148_1_2 = True
internal_handling_established = True
violate_148_3_2 = False
compliance_148_2_2 = True
explanation_document_compliant = True
explanation_document_provided = True
compliance_148_3_2 = True
reported_to_authority_on_time = True
internal_handling_ok = True
explanation_document_truthful = True
internal_control_executed = True
public_explanation_provided = True
violate_148_2_2 = False
violate_148_2_1 = False
violate_148_1_2 = False
penalty = False
compliance_148_3_1 = True
internal_handling_executed = True
internal_control_established = True
violate_148_3_1 = False
internal_control_ok = True
compliance_148_2_1 = True
report_or_explanation_truthful = True
violate_148_1_or_2 = False